500 11 156 1 177 14 196 12 10 25 172 8 255 40 220 32 223 9 1 6 178 13 51 2 71 23 7 4 31 3 98 10 142 44 80 33 106 26 84 42 166 5 229 7 78 24 233 39 40 35 245 45 123 21 53 37 40 19 214 16 25 20 128 46 196 29 182 27 49 31 222